NAME : airline78.pruned_global_8.-281984432.tour
COMMENT : Length = -281984432
TYPE : TOUR
DIMENSION : 29
TOUR_SECTION
28
26
25
24
23
22
10
6
17
19
18
3
4
1
2
13
8
9
11
15
7
12
21
20
14
5
16
27
29
-1
EOF
